
******************************************************************************
This program contains Ipopt, a library for large-scale nonlinear optimization.
 Ipopt is released as open source code under the Eclipse Public License (EPL).
         For more information visit http://projects.coin-or.org/Ipopt
******************************************************************************

This is Ipopt version 3.12.6, running with linear solver ma57.

Number of nonzeros in equality constraint Jacobian...:   101179
Number of nonzeros in inequality constraint Jacobian.:    82004
Number of nonzeros in Lagrangian Hessian.............:    23620

Total number of variables............................:    22139
                     variables with only lower bounds:       39
                variables with lower and upper bounds:     1599
                     variables with only upper bounds:        0
Total number of equality constraints.................:    20540
Total number of inequality constraints...............:    41002
        inequality constraints with only lower bounds:    20501
   inequality constraints with lower and upper bounds:        0
        inequality constraints with only upper bounds:    20501

iter    objective    inf_pr   inf_du lg(mu)  ||d||  lg(rg) alpha_du alpha_pr  ls
   0 -4.7500000e-01 1.28e+00 4.30e+00  -1.0 0.00e+00    -  0.00e+00 0.00e+00   0
   1 -4.6066692e-01 1.25e+00 5.37e+01  -1.0 7.01e-01   2.0 1.03e-01 3.18e-02f  1
   2 -4.5968770e-01 1.24e+00 4.73e+02  -1.0 8.18e-01   1.5 1.44e-01 2.17e-03f  1
   3 -4.4228750e-01 1.20e+00 4.83e+02  -1.0 1.63e+00   1.0 8.60e-02 3.82e-02f  1
   4 -4.2917417e-01 1.16e+00 4.64e+02  -1.0 2.84e+01   0.6 3.59e-02 3.01e-02f  1
   5 -4.1961792e-01 1.13e+00 5.26e+02  -1.0 8.30e-01   1.0 7.70e-02 2.24e-02f  1
   6 -4.1057826e-01 1.11e+00 6.14e+02  -1.0 1.02e+00   1.4 4.35e-02 2.07e-02f  1
   7 -4.0117267e-01 1.09e+00 5.69e+02  -1.0 1.04e+00   1.8 1.71e-02 1.99e-02f  1
   8 -3.9796630e-01 1.08e+00 2.04e+03  -1.0 1.03e+00   2.3 4.69e-02 8.27e-03f  1
   9 -3.9519235e-01 1.07e+00 5.31e+03  -1.0 1.12e+00   2.7 3.73e-02 7.58e-03f  1
iter    objective    inf_pr   inf_du lg(mu)  ||d||  lg(rg) alpha_du alpha_pr  ls
  10 -3.8675831e-01 1.05e+00 5.13e+03  -1.0 9.89e-01   2.2 1.93e-02 2.15e-02f  1
  11 -3.8226211e-01 1.04e+00 6.47e+03  -1.0 9.81e-01   2.6 2.79e-02 1.17e-02f  1
  12 -3.8017941e-01 1.03e+00 1.78e+04  -1.0 9.87e-01   3.1 5.34e-02 5.47e-03f  1
  13 -3.7692322e-01 1.02e+00 7.46e+04  -1.0 9.67e-01   3.5 1.02e-01 8.59e-03f  1
  14 -3.6322425e-01 9.85e-01 6.88e+04  -1.0 9.45e-01   3.0 7.72e-03 3.63e-02f  1
  15 -3.6013472e-01 9.77e-01 8.28e+04  -1.0 8.89e-01   3.4 4.44e-02 8.51e-03f  1
Reallocating memory for MA57: lfact (8205570)
  16 -3.5710729e-01 9.68e-01 9.18e+04  -1.0 8.50e-01   3.9 1.73e-02 8.41e-03f  1
  17 -3.5399484e-01 9.60e-01 7.99e+04  -1.0 8.49e-01   4.3 5.10e-03 8.72e-03f  1
  18 -3.5118380e-01 9.52e-01 1.16e+05  -1.0 8.73e-01   4.7 1.25e-02 7.95e-03h  1
  19 -3.5012896e-01 9.50e-01 1.22e+05  -1.0 8.45e-01   4.2 5.51e-03 3.00e-03f  1
iter    objective    inf_pr   inf_du lg(mu)  ||d||  lg(rg) alpha_du alpha_pr  ls
  20 -3.4990817e-01 9.49e-01 1.58e+05  -1.0 8.30e-01   4.7 5.71e-03 6.29e-04h  1
  21 -3.4824331e-01 9.44e-01 2.06e+05  -1.0 8.46e-01   5.1 7.27e-03 4.75e-03h  1
  22 -3.4441170e-01 9.34e-01 2.24e+05  -1.0 8.33e-01   4.6 1.44e-02 1.10e-02f  1
Reallocating memory for MA57: lfact (8711712)
  23 -3.4413319e-01 9.33e-01 5.49e+05  -1.0 8.12e-01   5.0 2.09e-02 8.08e-04h  1
Reallocating memory for MA57: lfact (9167345)
  24 -3.4225131e-01 9.28e-01 3.78e+05  -1.0 8.06e-01   5.5 1.54e-03 5.47e-03h  1
  25 -3.4094049e-01 9.25e-01 3.59e+05  -1.0 8.15e-01   5.0 2.49e-03 3.83e-03f  1
  26 -3.4092185e-01 9.25e-01 4.08e+05  -1.0 8.01e-01   5.4 1.41e-03 5.47e-05h  1
  27 -3.3822719e-01 9.17e-01 3.12e+05  -1.0 8.17e-01   4.9 7.18e-05 7.90e-03f  1
  28 -3.3598732e-01 9.11e-01 4.59e+05  -1.0 7.97e-01   5.4 1.11e-02 6.62e-03h  1
Reallocating memory for MA57: lfact (9692375)
  29 -3.3570282e-01 9.10e-01 2.08e+06  -1.0 7.86e-01   5.8 1.86e-02 8.46e-04h  1
iter    objective    inf_pr   inf_du lg(mu)  ||d||  lg(rg) alpha_du alpha_pr  ls
  30 -3.3125581e-01 8.98e-01 2.31e+06  -1.0 7.96e-01   5.3 2.22e-02 1.32e-02f  1
  31 -3.3084218e-01 8.97e-01 5.76e+06  -1.0 7.75e-01   5.7 4.48e-02 1.24e-03h  1
Reallocating memory for MA57: lfact (13213499)
  32 -3.2845107e-01 8.91e-01 1.09e+07  -1.0 7.69e-01   6.2 3.15e-02 7.20e-03f  1
  33 -3.2546519e-01 8.83e-01 1.30e+07  -1.0 7.80e-01   5.7 4.50e-02 9.05e-03f  1
  34 -3.2397289e-01 8.79e-01 1.30e+07  -1.0 7.60e-01   6.1 4.69e-03 4.55e-03f  1
Reallocating memory for MA57: lfact (22189336)
  35 -3.2371558e-01 8.78e-01 1.40e+07  -1.0 7.51e-01   6.5 2.86e-03 7.89e-04h  1
  36 -3.2362058e-01 8.78e-01 1.42e+07  -1.0 7.61e-01   6.1 1.55e-03 2.93e-04h  1
  37 -3.2327571e-01 8.77e-01 1.39e+07  -1.0 7.52e-01   6.5 3.75e-04 1.06e-03h  1
  38 -3.2326297e-01 8.77e-01 1.52e+07  -1.0 7.63e-01   6.0 9.26e-03 3.93e-05h  1
  39 -3.2229681e-01 8.74e-01 1.41e+07  -1.0 7.51e-01   6.4 4.46e-04 2.92e-03f  1
Reallocating memory for MA57: lfact (40980902)
iter    objective    inf_pr   inf_du lg(mu)  ||d||  lg(rg) alpha_du alpha_pr  ls
  40 -3.2146518e-01 8.72e-01 1.21e+07  -1.0 7.46e-01   6.9 3.58e-04 2.18e-03h  1
  41 -3.2125482e-01 8.72e-01 1.28e+07  -1.0 7.49e-01   6.4 2.66e-03 5.51e-04h  1
  42 -3.2070688e-01 8.71e-01 1.45e+07  -1.0 7.42e-01   6.8 3.26e-03 1.43e-03h  1
  43 -3.1725157e-01 8.63e-01 1.18e+07  -1.0 7.55e-01   6.3 3.51e-04 9.06e-03f  1
  44 -3.1722394e-01 8.63e-01 1.91e+07  -1.0 7.39e-01   6.8 8.78e-03 7.20e-05h  1
Reallocating memory for MA57: lfact (80368058)
  45 -3.1720525e-01 8.63e-01 2.04e+07  -1.0 7.32e-01   7.2 6.60e-04 4.74e-05h  1
  46 -3.1694047e-01 8.62e-01 2.01e+07  -1.0 7.27e-01   6.7 2.82e-04 6.81e-04h  1
  47 -3.1688264e-01 8.62e-01 2.13e+07  -1.0 7.02e-01   7.1 8.68e-04 1.49e-04h  1
  48 -3.1560543e-01 8.59e-01 2.08e+07  -1.0 7.05e-01   6.7 2.42e-03 3.28e-03f  1
  49 -3.1476123e-01 8.57e-01 1.97e+07  -1.0 6.98e-01   7.1 1.43e-03 2.17e-03h  1
iter    objective    inf_pr   inf_du lg(mu)  ||d||  lg(rg) alpha_du alpha_pr  ls
  50 -3.1279463e-01 8.53e-01 1.91e+07  -1.0 7.01e-01   6.6 3.95e-03 5.04e-03f  1
  51 -3.1261218e-01 8.53e-01 1.86e+07  -1.0 6.90e-01   7.0 8.14e-05 4.68e-04h  1
Reallocating memory for MA57: lfact (160457013)
  52 -3.1252468e-01 8.52e-01 2.34e+07  -1.0 6.88e-01   7.5 1.60e-03 2.24e-04h  1
  53 -3.1204757e-01 8.51e-01 2.35e+07  -1.0 6.90e-01   7.0 1.37e-03 1.23e-03f  1
  54 -3.1203217e-01 8.51e-01 2.58e+07  -1.0 6.89e-01   7.4 7.77e-04 3.95e-05h  1
  55 -3.1113623e-01 8.49e-01 2.33e+07  -1.0 7.09e-01   6.9 1.37e-04 2.31e-03f  1
  56 -3.1096046e-01 8.49e-01 2.26e+07  -1.0 7.05e-01   7.4 2.29e-04 4.52e-04h  1
  57 -3.0973360e-01 8.46e-01 1.95e+07  -1.0 7.13e-01   6.9 1.15e-04 3.16e-03f  1
  58 -3.0931656e-01 8.45e-01 2.50e+07  -1.0 7.03e-01   7.3 3.09e-03 1.07e-03h  1

Number of Iterations....: 58

                                   (scaled)                 (unscaled)
Objective...............:  -3.0931655737455455e-01   -3.0931655737455455e-01
Dual infeasibility......:   2.5016519903098948e+07    2.5016519903098948e+07
Constraint violation....:   8.4530340479771626e-01    8.4530340479771626e-01
Complementarity.........:   3.9713651061914298e+01    3.9713651061914298e+01
Overall NLP error.......:   7.8614451155635206e+03    2.5016519903098948e+07


Number of objective function evaluations             = 59
Number of objective gradient evaluations             = 59
Number of equality constraint evaluations            = 59
Number of inequality constraint evaluations          = 59
Number of equality constraint Jacobian evaluations   = 59
Number of inequality constraint Jacobian evaluations = 59
Number of Lagrangian Hessian evaluations             = 58
Total CPU secs in IPOPT (w/o function evaluations)   =    316.357
Total CPU secs in NLP function evaluations           =      1.243

EXIT: Maximum CPU time exceeded.

************************ CUTEst statistics ************************


 Package used            :  IPOPT
 Problem                 :  GAUSSELM  
 # variables             =           22140
 # constraints           =           61542
 # objective functions   =        0.1190000E+03
 # objective gradients   =        0.6000000E+02
 # objective Hessians    =        0.5900000E+02
 # Hessian-vector prdct  =        0.0000000E+00
 # constraints functions =        0.1200000E+03
 # constraints gradients =        0.6100000E+02
 # constraints Hessians  =        0.5900000E+02
 Exit code               =              -4
 Final f                 =   0.0000000E+00
 Set up time             =            0.40 seconds
 Solve time              =          472.13 seconds


******************************************************************

System Time =     127.0989990234 s.
